(set-logic ALL)
(declare-const k Int)
(declare-fun s () (_ BitVec k))
(declare-fun t () (_ BitVec k))
(assert (distinct (bvurem s (bvlshr s (bvshl s t))) (bvurem s (bvshl s (bvshl s t)))))
(check-sat)
